
Gurobi 6.5.2 (linux64) logging started Tue Sep 20 21:16:19 2016


Gurobi 6.5.2 (linux64) logging started Tue Sep 20 21:16:19 2016

Optimize a model with 41 rows, 115 columns and 239 nonzeros
Coefficient statistics:
  Matrix range    [1e+00, 2e+00]
  Objective range [6e+00, 1e+02]
  Bounds range    [1e+00, 1e+00]
  RHS range       [1e+00, 1e+00]
Presolve removed 17 rows and 13 columns
Presolve time: 0.00s
Presolved: 24 rows, 102 columns, 206 nonzeros
Variable types: 0 continuous, 102 integer (102 binary)

Root relaxation: objective 5.630000e+02, 25 iterations, 0.00 seconds

    Nodes    |    Current Node    |     Objective Bounds      |     Work
 Expl Unexpl |  Obj  Depth IntInf | Incumbent    BestBd   Gap | It/Node Time

*    0     0               0     566.0000000  566.00000  0.00%     -    0s

Cutting planes:
  Lazy constraints: 4

Explored 0 nodes (26 simplex iterations) in 0.00 seconds
Thread count was 8 (of 8 available processors)

Optimal solution found (tolerance 1.00e-04)
Best objective 5.660000000000e+02, best bound 5.660000000000e+02, gap 0.0%
